c "302918.clq"
p edge 138 536
e 1 5
e 1 6
e 1 7
e 1 8
e 1 10
e 1 11
e 1 12
e 1 15
e 1 18
e 1 22
e 1 24
e 1 25
e 1 26
e 1 27
e 1 37
e 1 38
e 1 49
e 1 80
e 1 83
e 1 99
e 1 130
e 2 5
e 2 6
e 2 8
e 2 9
e 2 32
e 2 36
e 2 62
e 2 83
e 2 138
e 3 5
e 3 8
e 3 9
e 3 12
e 3 13
e 3 22
e 3 29
e 3 30
e 3 33
e 3 34
e 3 45
e 3 48
e 3 56
e 3 59
e 3 61
e 3 64
e 3 66
e 3 93
e 3 98
e 3 100
e 3 104
e 4 5
e 4 6
e 4 7
e 4 9
e 4 11
e 4 12
e 4 14
e 4 17
e 4 19
e 4 21
e 4 23
e 4 28
e 4 31
e 4 43
e 4 45
e 4 55
e 4 62
e 4 64
e 4 71
e 4 74
e 4 93
e 4 105
e 4 108
e 4 109
e 4 114
e 4 136
e 5 6
e 5 7
e 5 8
e 5 9
e 5 10
e 5 11
e 5 12
e 5 13
e 5 14
e 5 15
e 5 17
e 5 19
e 5 20
e 5 21
e 5 22
e 5 24
e 5 27
e 5 29
e 5 31
e 5 35
e 5 36
e 5 38
e 5 39
e 5 42
e 5 45
e 5 49
e 5 50
e 5 54
e 5 59
e 5 60
e 5 61
e 5 64
e 5 72
e 5 103
e 5 116
e 5 118
e 5 125
e 5 127
e 5 131
e 5 136
e 5 137
e 6 7
e 6 10
e 6 26
e 6 35
e 6 46
e 6 58
e 6 62
e 6 63
e 6 71
e 6 75
e 6 86
e 6 92
e 6 102
e 6 105
e 6 125
e 6 128
e 6 132
e 6 135
e 7 11
e 7 16
e 7 18
e 7 21
e 7 23
e 7 43
e 7 65
e 7 114
e 7 115
e 7 116
e 8 10
e 8 13
e 8 16
e 8 24
e 8 25
e 8 26
e 8 42
e 8 43
e 8 47
e 8 72
e 8 85
e 8 96
e 8 97
e 8 119
e 8 120
e 8 126
e 8 134
e 9 27
e 9 28
e 9 31
e 9 37
e 9 53
e 9 57
e 9 59
e 9 73
e 9 75
e 9 77
e 9 81
e 9 101
e 9 137
e 10 13
e 10 14
e 10 16
e 10 17
e 10 20
e 10 25
e 10 27
e 10 33
e 10 35
e 10 36
e 10 37
e 10 38
e 10 55
e 10 57
e 10 63
e 10 65
e 10 69
e 10 81
e 10 94
e 10 110
e 10 129
e 11 15
e 11 20
e 11 23
e 11 25
e 11 31
e 11 34
e 11 40
e 11 78
e 11 86
e 11 91
e 11 108
e 11 115
e 11 117
e 12 15
e 12 56
e 12 78
e 12 91
e 12 94
e 13 14
e 13 16
e 13 17
e 13 18
e 13 19
e 13 23
e 13 26
e 13 34
e 13 42
e 13 43
e 13 48
e 13 52
e 13 65
e 13 71
e 13 72
e 13 73
e 13 74
e 13 79
e 13 80
e 13 89
e 13 97
e 13 107
e 13 109
e 13 117
e 13 123
e 14 24
e 14 30
e 14 39
e 14 46
e 14 48
e 14 50
e 14 52
e 14 99
e 14 120
e 14 121
e 15 18
e 15 19
e 15 21
e 15 42
e 15 53
e 15 55
e 15 60
e 15 68
e 15 83
e 15 86
e 15 89
e 15 93
e 15 108
e 15 114
e 15 133
e 15 134
e 15 135
e 16 20
e 16 28
e 16 53
e 16 56
e 16 58
e 16 80
e 16 88
e 16 91
e 16 102
e 16 121
e 16 133
e 17 46
e 17 95
e 17 103
e 18 22
e 18 32
e 18 38
e 18 39
e 18 47
e 18 84
e 18 85
e 18 87
e 18 89
e 18 126
e 18 128
e 18 134
e 19 33
e 19 54
e 19 60
e 19 90
e 19 112
e 19 126
e 20 34
e 20 40
e 20 51
e 20 90
e 20 106
e 20 120
e 21 32
e 21 33
e 21 40
e 21 41
e 21 44
e 21 46
e 21 48
e 21 50
e 21 51
e 21 127
e 22 29
e 22 30
e 22 36
e 22 55
e 22 58
e 22 59
e 22 67
e 22 73
e 22 76
e 22 79
e 22 89
e 22 90
e 22 100
e 22 109
e 22 113
e 22 118
e 23 70
e 23 99
e 23 111
e 24 28
e 24 29
e 24 30
e 24 32
e 24 47
e 24 68
e 24 79
e 24 96
e 24 98
e 25 63
e 25 66
e 25 82
e 25 124
e 26 70
e 26 107
e 26 129
e 27 45
e 27 47
e 27 49
e 27 52
e 27 54
e 27 56
e 27 68
e 27 73
e 27 77
e 27 83
e 27 98
e 27 119
e 27 124
e 28 65
e 28 125
e 29 51
e 29 66
e 29 69
e 29 99
e 29 118
e 29 130
e 30 39
e 30 41
e 30 44
e 30 70
e 30 88
e 30 97
e 31 41
e 31 76
e 31 93
e 31 137
e 32 57
e 32 103
e 32 120
e 33 40
e 33 44
e 33 95
e 34 35
e 34 37
e 34 69
e 34 92
e 34 125
e 34 127
e 34 129
e 34 136
e 35 71
e 35 92
e 36 41
e 36 54
e 36 68
e 36 74
e 36 84
e 36 101
e 37 87
e 37 111
e 37 138
e 38 85
e 38 95
e 39 50
e 39 61
e 39 67
e 40 44
e 40 49
e 40 132
e 41 82
e 41 87
e 41 97
e 41 111
e 41 114
e 42 79
e 42 82
e 42 121
e 43 61
e 43 85
e 43 102
e 43 103
e 44 122
e 45 66
e 45 102
e 47 113
e 47 130
e 48 53
e 48 60
e 48 70
e 48 95
e 48 106
e 48 131
e 48 135
e 49 75
e 49 88
e 49 106
e 49 112
e 49 138
e 50 51
e 50 52
e 50 57
e 50 58
e 50 64
e 50 75
e 50 81
e 50 90
e 50 101
e 50 104
e 50 105
e 50 117
e 50 123
e 50 124
e 51 92
e 53 74
e 54 133
e 55 81
e 55 116
e 56 69
e 56 107
e 56 119
e 57 63
e 57 113
e 57 126
e 59 84
e 60 62
e 60 72
e 60 100
e 60 104
e 62 111
e 63 67
e 63 76
e 64 77
e 64 96
e 64 128
e 64 134
e 65 67
e 65 110
e 65 115
e 66 94
e 66 110
e 67 129
e 67 132
e 68 84
e 68 107
e 68 108
e 68 130
e 69 78
e 69 112
e 69 122
e 70 76
e 72 112
e 73 82
e 74 77
e 74 88
e 74 128
e 75 94
e 75 105
e 76 78
e 76 80
e 77 121
e 79 87
e 82 118
e 84 138
e 85 86
e 85 91
e 85 104
e 85 127
e 87 98
e 87 109
e 87 115
e 89 100
e 89 123
e 89 136
e 90 96
e 90 122
e 91 135
e 94 113
e 95 122
e 96 110
e 100 101
e 100 137
e 101 119
e 102 106
e 107 133
e 108 117
e 110 131
e 114 131
e 115 116
e 118 123
e 119 124
e 130 132
